letting n_nurses=25
letting n_days=7
letting n_shift_types=4
letting max_covers=9
letting t_covers=87
letting covers=[7,7,3,0,7,7,3,0,5,4,9,0,3,1,3,0,2,2,1,0,6,3,7,0,4,1,2,0]
letting prefes=[4,3,3,4,1,1,1,1,1,1,1,1,3,3,3,3,1,1,1,1,4,3,3,4,3,3,3,3,1,3,3,1,1,1,1,3,1,1,1,3,3,1,1,3,1,1,1,3,1,3,3,1,3,1,1,3,1,3,3,1,1,1,1,1,1,1,1,1,3,3,3,3,1,1,1,1,1,3,3,1,3,3,3,3,1,3,3,1,2,1,1,3,2,1,1,3,3,3,3,3,2,1,1,3,1,3,3,1,3,3,3,3,4,3,3,4,1,1,1,1,1,1,1,1,1,1,3,1,1,1,1,1,4,3,3,4,1,1,3,1,1,3,3,1,1,1,1,1,1,1,1,1,3,1,3,3,1,1,1,1,1,3,3,1,3,1,3,3,1,3,3,1,1,2,3,1,1,2,3,1,3,3,3,3,1,2,3,1,1,3,3,1,3,3,3,3,1,3,3,1,1,1,3,1,1,1,3,1,3,1,3,3,1,1,3,1,1,3,3,1,3,1,3,3,1,1,1,1,1,1,1,1,1,1,1,1,3,1,3,3,1,1,1,1,1,1,1,1,3,1,3,3,1,3,3,1,2,1,3,1,2,1,3,1,1,1,3,1,2,1,3,1,1,3,3,1,1,1,3,1,1,1,1,1,1,1,1,1,1,1,1,1,3,3,3,3,1,1,1,1,1,1,1,1,3,3,3,3,4,1,1,4,1,1,1,3,1,1,1,3,3,1,3,3,1,1,1,3,4,1,1,4,3,1,3,3,1,3,3,1,1,1,1,1,1,1,1,1,3,1,3,3,1,1,1,1,1,3,3,1,3,1,3,3,1,3,3,1,1,1,3,1,1,1,3,1,3,1,3,3,1,1,3,1,1,3,3,1,3,1,3,3,1,1,1,1,2,1,1,1,2,1,1,1,3,1,1,3,2,1,1,1,1,1,1,1,3,1,1,3,1,3,3,1,1,1,1,1,1,1,1,1,1,1,3,1,1,1,1,1,1,3,3,1,1,1,3,1,4,3,3,4,1,1,3,1,1,1,3,1,3,1,3,3,1,1,3,1,4,3,3,4,3,1,3,3,1,3,3,1,2,1,1,1,2,1,1,1,1,1,1,1,2,1,1,1,1,3,3,1,1,1,1,1,1,1,1,1,2,2,1,1,2,2,1,1,3,1,3,3,2,2,1,1,1,1,1,1,3,1,3,3,1,3,3,1,1,2,1,1,1,2,1,1,1,1,3,1,1,2,1,1,1,3,3,1,1,1,3,1,1,3,3,1,1,1,1,3,1,1,1,3,3,1,3,3,1,1,1,3,1,3,3,1,3,1,3,3,1,3,3,1,1,2,1,1,1,2,1,1,3,1,1,3,1,2,1,1,1,3,3,1,3,1,1,3,1,3,3,1,1,2,1,3,1,2,1,3,3,1,3,3,1,2,1,3,1,3,3,1,3,1,3,3,1,3,3,1,1,1,1,1,1,1,1,1,3,1,3,3,1,1,1,1,1,3,3,1,3,1,3,3,4,3,3,4,1,1,1,1,1,1,1,1,3,1,1,3,1,1,1,1,4,3,3,4,3,1,1,3]
letting ub =  219
